82
1 2 3 4 5 6 7 8 9 10 11 12 13 14 15 16 17 18 19 20 21 22 23 25 26 27 28 29 30 32 33 34 35 36 39 43 44 46 47 48 49 50 52 54 57 58 59 60 61 62 63 64 66 68 69 73 75 77 78 81 83 85 86 89 90 91 94 103 106 107 115 116 120 121 124 128 138 143 144 194 275 340